62 12 
0 54 
12 58 
68 93 
18 70 
44 37 
26 24 
24 72 
96 72 
77 33 
1 8 
24 47 
46 29 
82 92 
96 62 
80 10 
26 81 
64 39 
39 84 
84 57 
54 28 
46 32 
5 70 
4 1 
42 34 
86 95 
42 10 
95 40 
39 77 
84 88 
91 65 
50 18 
98 67 
57 37 
51 41 
46 6 
22 92 
38 79 
14 95 
32 8 
81 19 
4 75 
29 99 
68 21 
28 52 
61 20 
17 11 
38 67 
78 47 
4 82 
